peakDumbCharging = 14800; 
Machine = anon_enum(16); 
machineSpeed = [3700,3700,3700,3700,3700,3700,3700,3700,3700,3700,3700,3700,3700,3700,3700,3700]; 
machineLoad = [3700,3700,3700,3700,3700,3700,3700,3700,3700,3700,3700,3700,3700,3700,3700,3700]; 
Car = anon_enum(8); 
demandCar = [22480,12640,3880,40800,11040,9880,24880,8600]; 
arrivalCar = [63,58,57,54,53,51,47,44]; 
departureCar = [77,63,60,75,59,55,56,50]; 
